m = 4; % number of couriers
n = 4; % number of packages

l = [5, 3, 5, 5]; % maximum carriable weight per courier
s = [1, 1, 1, 2]; % weight of each package

D = % distance matrix 
	 [| 1, 4, 1, 3, 2
	 | 2, 2, 4, 3, 4
	 | 1, 3, 3, 1, 3
	 | 2, 4, 4, 3, 4
	 | 4, 1, 4, 1, 3
	 |];